NAME: eil51
COMMENT: Quick (5min) local search tour for eil51 (461.3558979003798)
TYPE: TOUR
DIMENSION: 51
TOUR_SECTION: 1 22 3 20 35 36 28 31 8 26 7 23 24 43 48 6 14 25 13 40 42 19 41 4 18 47 12 17 37 44 15 45 33 39 10 30 34 21 29 2 16 50 9 49 5 38 11 32 27 51 46 -1
EOF